
letting r = 10
letting n = 7

letting demand =
        [[0,1,1,1,0,0,0],
         [0,0,0,0,0,0,1],
         [0,0,0,1,0,1,0],
         [0,0,0,0,0,0,0],
         [0,0,0,0,0,1,1],
         [0,0,0,0,0,0,1],
         [0,0,0,0,0,0,0]]


letting capacity_nodes be [2, 5, 1, 1, 2, 2, 4, 1, 1, 1]